c turning on binary mode checking
c parsing input formula with 202048 variables and 780990 clauses
c finished parsing, read 16801246 bytes from proof file
c detected empty clause; start verification via backward checking
c 17047 of 780990 clauses in core                            
c 23495 of 454532 lemmas in core using 307953 resolution steps
c 0 RAT lemmas in core; 2444 redundant literals in core lemmas
s VERIFIED
c verification time: 2.797 seconds
